NAME /Users/henri/Research/solvers/instances/idol-instances/robust/collection/spp_dkp_Lefebvre_et_al_2026/shortest_path_7_4/uncertainty_sets/discrete_knapsack
ROWS
 N  OBJ
 L  primal_lower
COLUMNS
    MARKER    'MARKER'                 'INTORG'
    y[0,1]     OBJ        0
    y[0,1]     primal_lower -3.64
    y[0,2]     OBJ        0
    y[0,2]     primal_lower -2.95
    y[0,3]     OBJ        0
    y[0,3]     primal_lower -1.16
    y[0,4]     OBJ        0
    y[0,4]     primal_lower -3.52
    y[0,5]     OBJ        0
    y[0,5]     primal_lower -1.45
    y[0,6]     OBJ        0
    y[0,6]     primal_lower -4.36
    y[1,0]     OBJ        0
    y[1,0]     primal_lower -0.2
    y[1,3]     OBJ        0
    y[1,3]     primal_lower -2.05
    y[1,4]     OBJ        0
    y[1,4]     primal_lower -4.24
    y[1,6]     OBJ        0
    y[1,6]     primal_lower -2.11
    y[2,0]     OBJ        0
    y[2,0]     primal_lower -2.36
    y[2,3]     OBJ        0
    y[2,3]     primal_lower -0.39
    y[2,4]     OBJ        0
    y[2,4]     primal_lower -1.98
    y[2,5]     OBJ        0
    y[2,5]     primal_lower -3.47
    y[2,6]     OBJ        0
    y[2,6]     primal_lower -4.03
    y[3,0]     OBJ        0
    y[3,0]     primal_lower -1.5
    y[3,1]     OBJ        0
    y[3,1]     primal_lower -0.48
    y[3,2]     OBJ        0
    y[3,2]     primal_lower -3.73
    y[3,4]     OBJ        0
    y[3,4]     primal_lower -1.83
    y[3,5]     OBJ        0
    y[3,5]     primal_lower -2.92
    y[4,0]     OBJ        0
    y[4,0]     primal_lower -0.17
    y[4,1]     OBJ        0
    y[4,1]     primal_lower -1.39
    y[4,2]     OBJ        0
    y[4,2]     primal_lower -0.22
    y[4,3]     OBJ        0
    y[4,3]     primal_lower -1.73
    y[4,6]     OBJ        0
    y[4,6]     primal_lower -1.22
    y[5,0]     OBJ        0
    y[5,0]     primal_lower -4.6
    y[5,2]     OBJ        0
    y[5,2]     primal_lower -1.84
    y[5,3]     OBJ        0
    y[5,3]     primal_lower -1.43
    y[5,6]     OBJ        0
    y[5,6]     primal_lower -1.03
    y[6,0]     OBJ        0
    y[6,0]     primal_lower -2.3
    y[6,1]     OBJ        0
    y[6,1]     primal_lower -0.27
    y[6,2]     OBJ        0
    y[6,2]     primal_lower -1.35
    y[6,4]     OBJ        0
    y[6,4]     primal_lower -1.09
    y[6,5]     OBJ        0
    y[6,5]     primal_lower -4.48
    u[0,1]     OBJ        0
    u[0,1]     primal_lower 14
    u[0,2]     OBJ        0
    u[0,2]     primal_lower 72
    u[0,3]     OBJ        0
    u[0,3]     primal_lower 54
    u[0,4]     OBJ        0
    u[0,4]     primal_lower 85
    u[0,5]     OBJ        0
    u[0,5]     primal_lower 84
    u[0,6]     OBJ        0
    u[0,6]     primal_lower 58
    u[1,0]     OBJ        0
    u[1,0]     primal_lower 77
    u[1,3]     OBJ        0
    u[1,3]     primal_lower 22
    u[1,4]     OBJ        0
    u[1,4]     primal_lower 82
    u[1,6]     OBJ        0
    u[1,6]     primal_lower 96
    u[2,0]     OBJ        0
    u[2,0]     primal_lower 48
    u[2,3]     OBJ        0
    u[2,3]     primal_lower 75
    u[2,4]     OBJ        0
    u[2,4]     primal_lower 83
    u[2,5]     OBJ        0
    u[2,5]     primal_lower 12
    u[2,6]     OBJ        0
    u[2,6]     primal_lower 6
    u[3,0]     OBJ        0
    u[3,0]     primal_lower 90
    u[3,1]     OBJ        0
    u[3,1]     primal_lower 15
    u[3,2]     OBJ        0
    u[3,2]     primal_lower 61
    u[3,4]     OBJ        0
    u[3,4]     primal_lower 12
    u[3,5]     OBJ        0
    u[3,5]     primal_lower 57
    u[4,0]     OBJ        0
    u[4,0]     primal_lower 42
    u[4,1]     OBJ        0
    u[4,1]     primal_lower 65
    u[4,2]     OBJ        0
    u[4,2]     primal_lower 1
    u[4,3]     OBJ        0
    u[4,3]     primal_lower 37
    u[4,6]     OBJ        0
    u[4,6]     primal_lower 90
    u[5,0]     OBJ        0
    u[5,0]     primal_lower 5
    u[5,2]     OBJ        0
    u[5,2]     primal_lower 26
    u[5,3]     OBJ        0
    u[5,3]     primal_lower 40
    u[5,6]     OBJ        0
    u[5,6]     primal_lower 83
    u[6,0]     OBJ        0
    u[6,0]     primal_lower 33
    u[6,1]     OBJ        0
    u[6,1]     primal_lower 71
    u[6,2]     OBJ        0
    u[6,2]     primal_lower 26
    u[6,4]     OBJ        0
    u[6,4]     primal_lower 27
    u[6,5]     OBJ        0
    u[6,5]     primal_lower 92
    MARKER    'MARKER'                 'INTEND'
RHS
    RHS       primal_lower 158
BOUNDS
 LI BND       y[0,1]     0
 UI BND       y[0,1]     1
 LI BND       y[0,2]     0
 UI BND       y[0,2]     1
 LI BND       y[0,3]     0
 UI BND       y[0,3]     1
 LI BND       y[0,4]     0
 UI BND       y[0,4]     1
 LI BND       y[0,5]     0
 UI BND       y[0,5]     1
 LI BND       y[0,6]     0
 UI BND       y[0,6]     1
 LI BND       y[1,0]     0
 UI BND       y[1,0]     1
 LI BND       y[1,3]     0
 UI BND       y[1,3]     1
 LI BND       y[1,4]     0
 UI BND       y[1,4]     1
 LI BND       y[1,6]     0
 UI BND       y[1,6]     1
 LI BND       y[2,0]     0
 UI BND       y[2,0]     1
 LI BND       y[2,3]     0
 UI BND       y[2,3]     1
 LI BND       y[2,4]     0
 UI BND       y[2,4]     1
 LI BND       y[2,5]     0
 UI BND       y[2,5]     1
 LI BND       y[2,6]     0
 UI BND       y[2,6]     1
 LI BND       y[3,0]     0
 UI BND       y[3,0]     1
 LI BND       y[3,1]     0
 UI BND       y[3,1]     1
 LI BND       y[3,2]     0
 UI BND       y[3,2]     1
 LI BND       y[3,4]     0
 UI BND       y[3,4]     1
 LI BND       y[3,5]     0
 UI BND       y[3,5]     1
 LI BND       y[4,0]     0
 UI BND       y[4,0]     1
 LI BND       y[4,1]     0
 UI BND       y[4,1]     1
 LI BND       y[4,2]     0
 UI BND       y[4,2]     1
 LI BND       y[4,3]     0
 UI BND       y[4,3]     1
 LI BND       y[4,6]     0
 UI BND       y[4,6]     1
 LI BND       y[5,0]     0
 UI BND       y[5,0]     1
 LI BND       y[5,2]     0
 UI BND       y[5,2]     1
 LI BND       y[5,3]     0
 UI BND       y[5,3]     1
 LI BND       y[5,6]     0
 UI BND       y[5,6]     1
 LI BND       y[6,0]     0
 UI BND       y[6,0]     1
 LI BND       y[6,1]     0
 UI BND       y[6,1]     1
 LI BND       y[6,2]     0
 UI BND       y[6,2]     1
 LI BND       y[6,4]     0
 UI BND       y[6,4]     1
 LI BND       y[6,5]     0
 UI BND       y[6,5]     1
 LI BND       u[0,1]     0
 UI BND       u[0,1]     1
 LI BND       u[0,2]     0
 UI BND       u[0,2]     1
 LI BND       u[0,3]     0
 UI BND       u[0,3]     1
 LI BND       u[0,4]     0
 UI BND       u[0,4]     1
 LI BND       u[0,5]     0
 UI BND       u[0,5]     1
 LI BND       u[0,6]     0
 UI BND       u[0,6]     1
 LI BND       u[1,0]     0
 UI BND       u[1,0]     1
 LI BND       u[1,3]     0
 UI BND       u[1,3]     1
 LI BND       u[1,4]     0
 UI BND       u[1,4]     1
 LI BND       u[1,6]     0
 UI BND       u[1,6]     1
 LI BND       u[2,0]     0
 UI BND       u[2,0]     1
 LI BND       u[2,3]     0
 UI BND       u[2,3]     1
 LI BND       u[2,4]     0
 UI BND       u[2,4]     1
 LI BND       u[2,5]     0
 UI BND       u[2,5]     1
 LI BND       u[2,6]     0
 UI BND       u[2,6]     1
 LI BND       u[3,0]     0
 UI BND       u[3,0]     1
 LI BND       u[3,1]     0
 UI BND       u[3,1]     1
 LI BND       u[3,2]     0
 UI BND       u[3,2]     1
 LI BND       u[3,4]     0
 UI BND       u[3,4]     1
 LI BND       u[3,5]     0
 UI BND       u[3,5]     1
 LI BND       u[4,0]     0
 UI BND       u[4,0]     1
 LI BND       u[4,1]     0
 UI BND       u[4,1]     1
 LI BND       u[4,2]     0
 UI BND       u[4,2]     1
 LI BND       u[4,3]     0
 UI BND       u[4,3]     1
 LI BND       u[4,6]     0
 UI BND       u[4,6]     1
 LI BND       u[5,0]     0
 UI BND       u[5,0]     1
 LI BND       u[5,2]     0
 UI BND       u[5,2]     1
 LI BND       u[5,3]     0
 UI BND       u[5,3]     1
 LI BND       u[5,6]     0
 UI BND       u[5,6]     1
 LI BND       u[6,0]     0
 UI BND       u[6,0]     1
 LI BND       u[6,1]     0
 UI BND       u[6,1]     1
 LI BND       u[6,2]     0
 UI BND       u[6,2]     1
 LI BND       u[6,4]     0
 UI BND       u[6,4]     1
 LI BND       u[6,5]     0
 UI BND       u[6,5]     1
ENDATA
